20
8	0	86	55	89
5	89	52	1	56
6	79	22	37	65
1	72	35	35	80
6	41	21	95	80
5	97	47	3	87
6	114	51	17	13
10	66	18	68	44
8	62	40	98	35
9	48	45	15	42
2	26	61	81	66
1	102	73	9	39
3	60	25	10	18
8	12	28	40	15
5	69	74	86	50
6	30	48	74	21
6	14	61	4	15
5	59	61	4	27
10	27	74	16	14
10	95	64	1	73
